data/CVRPLIB/Vrp-Set-XML100/instances/XML100_3112_02.vrp
NAME : XML100_3112_02
COMMENT : Generated by Queiroga, Sadykov, Uchoa, and Vidal (2021)
TYPE : CVRP
DIMENSION : 101
EDGE_WEIGHT_TYPE : EUC_2D
CAPACITY : 7
NODE_COORD_SECTION
1    0    0   
2    798  652 
3    48   112 
4    973  366 
5    385  271 
6    131  872 
7    592  758 
8    913  3   
9    763  484 
10   740  372 
11   950  85  
12   699  893 
13   120  478 
14   518  157 
15   3    705 
16   370  743 
17   387  691 
18   542  839 
19   67   682 
20   783  949 
21   9    817 
22   7    256 
23   102  808 
24   945  754 
25   469  148 
26   82   195 
27   751  729 
28   23   578 
29   188  501 
30   668  628 
31   484  437 
32   636  856 
33   833  597 
34   17   8   
35   431  185 
36   70   414 
37   430  91  
38   245  697 
39   861  188 
40   885  489 
41   970  111 
42   661  937 
43   73   829 
44   199  970 
45   243  75  
46   633  13  
47   654  750 
48   974  227 
49   272  974 
50   685  682 
51   999  698 
52   94   777 
53   332  44  
54   305  415 
55   507  960 
56   75   743 
57   71   588 
58   706  328 
59   67   816 
60   904  893 
61   566  934 
62   402  330 
63   672  598 
64   25   434 
65   851  557 
66   498  727 
67   811  702 
68   170  629 
69   16   224 
70   405  677 
71   347  382 
72   55   196 
73   618  318 
74   592  138 
75   291  481 
76   175  160 
77   511  538 
78   237  427 
79   683  391 
80   427  17  
81   301  173 
82   932  979 
83   159  137 
84   8    526 
85   684  334 
86   840  119 
87   671  411 
88   334  409 
89   190  36  
90   385  310 
91   147  957 
92   564  578 
93   423  997 
94   329  244 
95   393  130 
96   363  585 
97   153  390 
98   360  222 
99   197  47  
100  533  906 
101  554  454 
DEMAND_SECTION
1    0   
2    1   
3    1   
4    1   
5    1   
6    1   
7    1   
8    1   
9    1   
10   1   
11   1   
12   1   
13   1   
14   1   
15   1   
16   1   
17   1   
18   1   
19   1   
20   1   
21   1   
22   1   
23   1   
24   1   
25   1   
26   1   
27   1   
28   1   
29   1   
30   1   
31   1   
32   1   
33   1   
34   1   
35   1   
36   1   
37   1   
38   1   
39   1   
40   1   
41   1   
42   1   
43   1   
44   1   
45   1   
46   1   
47   1   
48   1   
49   1   
50   1   
51   1   
52   1   
53   1   
54   1   
55   1   
56   1   
57   1   
58   1   
59   1   
60   1   
61   1   
62   1   
63   1   
64   1   
65   1   
66   1   
67   1   
68   1   
69   1   
70   1   
71   1   
72   1   
73   1   
74   1   
75   1   
76   1   
77   1   
78   1   
79   1   
80   1   
81   1   
82   1   
83   1   
84   1   
85   1   
86   1   
87   1   
88   1   
89   1   
90   1   
91   1   
92   1   
93   1   
94   1   
95   1   
96   1   
97   1   
98   1   
99   1   
100  1   
101  1   
DEPOT_SECTION
1
-1
EOF
