data/CVRPLIB/Vrp-Set-XML100/solutions/XML100_3112_02.sol
Route #1: 95 69 16 15 37 67 28
Route #2: 5 90 43 48 92 54 99
Route #3: 68 21 71 25 82 98 88
Route #4: 55 51 22 42 58 20 14
Route #5: 65 17 60 41 11 31 6
Route #6: 45 7 10 40 47 38 85
Route #7: 72 86 78 9 57 84 73
Route #8: 93 89 61 4 97 80 44
Route #9: 76 91 49 29 62 100 30
Route #10: 3 50 23 59 81 19 46
Route #11: 33 2
Route #12: 94 34 13 24 36 79 52
Route #13: 96 77 74 53 87 70 75
Route #14: 26 66 1 32 64 39 8
Route #15: 63 83 27 18 56 12 35
Cost 25683
